32ccfd44e92141c2b341daafc0241fc7-pulp.sol
Optimal - objective value -26.01688426
      0 C0000000           -0.01                       0
      1 C0000001           -0.01                       0
      0 X0000000               1              -20.943377
      1 X0000001               1              -4.2584421
      2 X0000002               1            -0.015065278
      3 X0000003               6             -0.13333333
